(set-logic ALL)
(set-option :produce-models true)
(declare-sort BoundSet 0)
(declare-sort UnboundSet 0)
(set-option :finite-model-find true)
(declare-fun IsBlue (BoundSet) Bool)
(declare-fun Refutes (BoundSet BoundSet) Bool)
(declare-fun IsFallacy (BoundSet) Bool)
(assert (not (=> (exists ((a BoundSet)) (exists ((c BoundSet)) (and (IsBlue a) (Refutes a c)))) (exists ((d BoundSet)) (IsFallacy d)))))
(check-sat)
(get-model)